(set-option :timeout 3000000)

(declare-fun list_member (Int Int) Bool)
(declare-fun list_head (Int Int) Bool)

(declare-const s1 Int)
(declare-const s2 Int)
(declare-const x Int)
(declare-const s3 Int)
(declare-const s4 Int)
(declare-const s5 Int)
(declare-const u0 Int)
(declare-const u_0 Int)
(assert
 (and (forall ((u_0 Int))
              (=> (>= u_0 0)
                 (and
                  (or (list_member s4 u_0)
                      (and (not (list_head s2 u_0))
                           (not (list_member s3 u_0))
                           (not (list_head s4 u_0))
                           (not (list_member s2 u_0))))
                  (=> (list_head s4 u_0)
                     (and (list_head s5 x)
                          (=> (list_member s4 u_0)
                             (= u_0 x))))
                  (or (list_head s4 u_0)
                      (and
                       (list_head s5 u_0)
                       (=> (list_member s4 u_0)
                          (= u_0 x))
                       (or (list_member s4 u_0)
                           (and (not (list_head s5 x))
                                (not (list_member s4 x))
                                (not (list_member s5 x))))
                       )
                      )
                  )
                 )
              )
      )
 )
(check-sat)
